10
0 91 91 91 91 91 91 91 91 91
91 0 91 91 91 91 91 91 91 91
91 91 0 91 91 91 91 91 91 91
91 91 91 0 91 91 91 91 91 91
91 91 91 91 0 91 91 91 91 91
91 91 91 91 91 0 91 91 91 91
91 91 91 91 91 91 0 91 91 91
91 91 91 91 91 91 91 0 91 91
91 91 91 91 91 91 91 91 0 91
91 91 91 91 91 91 91 91 91 0
910
0 1 2 3 4 5 6 7 8 9 0 
